H8
1.0
        7.1772241592         0.0000000000         0.0000000000
        0.0000000000         7.1869277954         0.0000000000
        0.0000000000         0.0000000000         7.2081542015
    H
    8
Cartesian
     2.623509457         5.187066761         4.665545236
     6.212121750         5.593324932         2.542609180
     4.553714489         1.593602756         6.146686066
     0.965102623         1.999861249         1.061467921
     4.625881517         1.072713342         5.624311493
     1.037269331         2.520750449         1.583842601
     2.551342856         4.666177347         5.187919809
     6.139954722         6.114214346         2.020234393
